NAME : in_house_7_22
TYPE : TSP
DIMENSION : 7
EDGE_WEIGHT_TYPE : EXPLICIT
EDGE_WEIGHT_FORMAT : UPPER_ROW
COMMENT : INVERSION_SHIFT=5
EDGE_WEIGHT_SECTION
41
43
45
14
15
46
17
37
12
47
21
22
38
2
39
24
22
19
45
34
16
